
Gurobi 7.5.2 (linux64) logging started Sat Jun 23 17:24:39 2018

Changed value of parameter LogFile to result/ilp/simNo_5-n_100-m_40-s_4-minVAF_0.05-cov_2000-k_2-fn_0.05-fp_0.0001-na_0.15.ILP.gurobiSolverLog
   Prev: gurobi.log  Default: 
Changed value of parameter TimeLimit to 86400.0
   Prev: 1e+100  Min: 0.0  Max: 1e+100  Default: 1e+100
Optimize a model with 1265601 rows, 330440 columns and 3489120 nonzeros
Variable types: 0 continuous, 330440 integer (330440 binary)
Coefficient statistics:
  Matrix range     [9e-04, 2e+00]
  Objective range  [4e-01, 9e+00]
  Bounds range     [1e+00, 1e+00]
  RHS range        [9e-02, 2e+00]
Found heuristic solution: objective -9198.090983
Presolve removed 341794 rows and 214963 columns (presolve time = 7s) ...
Presolve removed 341794 rows and 214963 columns (presolve time = 10s) ...
Presolve removed 342268 rows and 214963 columns (presolve time = 15s) ...
Presolve removed 342268 rows and 214963 columns (presolve time = 20s) ...
Presolve removed 342268 rows and 214963 columns (presolve time = 26s) ...
Presolve removed 342268 rows and 214963 columns (presolve time = 30s) ...
Presolve removed 342268 rows and 214963 columns (presolve time = 35s) ...
Presolve removed 342268 rows and 214963 columns (presolve time = 45s) ...
Presolve removed 342268 rows and 214963 columns (presolve time = 47s) ...
Presolve removed 342268 rows and 214963 columns
Presolve time: 46.69s
Presolved: 923333 rows, 115477 columns, 2559176 nonzeros
Variable types: 0 continuous, 115477 integer (115477 binary)
Presolved: 115477 rows, 1038810 columns, 2674653 nonzeros

Presolve removed 115477 rows and 1038810 columns

Root simplex log...

Iteration    Objective       Primal Inf.    Dual Inf.      Time
       0    8.5595225e+00   0.000000e+00   6.914000e+04     59s
    5361   -6.1000938e+01   0.000000e+00   8.620000e+02     60s
    5855   -6.4523324e+01   0.000000e+00   0.000000e+00     61s
    5855   -6.4523324e+01   0.000000e+00   0.000000e+00     64s

Root relaxation: objective -6.452332e+01, 5855 iterations, 13.71 seconds
Total elapsed time = 66.49s
Total elapsed time = 81.27s
Total elapsed time = 89.95s
Total elapsed time = 97.05s

    Nodes    |    Current Node    |     Objective Bounds      |     Work
 Expl Unexpl |  Obj  Depth IntInf | Incumbent    BestBd   Gap | It/Node Time

     0     0  -64.52332    0  344 -9198.0910  -64.52332  99.3%     -  105s
H    0     0                     -90.3329328  -64.52332  28.6%     -  113s
H    0     0                     -90.1853621  -64.52332  28.5%     -  118s
     0     0  -67.51069    0  286  -90.18536  -67.51069  25.1%     -  130s
     0     0  -70.49805    0  253  -90.18536  -70.49805  21.8%     -  157s
     0     0  -73.32107    0  325  -90.18536  -73.32107  18.7%     -  182s
     0     0  -73.32107    0  323  -90.18536  -73.32107  18.7%     -  199s
     0     0  -75.32233    0  306  -90.18536  -75.32233  16.5%     -  213s
     0     0  -75.82022    0  343  -90.18536  -75.82022  15.9%     -  228s
     0     0  -75.82022    0  344  -90.18536  -75.82022  15.9%     -  237s
     0     0  -76.81601    0  247  -90.18536  -76.81601  14.8%     -  249s
     0     0  -77.08759    0  315  -90.18536  -77.08759  14.5%     -  263s
     0     0  -77.14794    0  318  -90.18536  -77.14794  14.5%     -  273s
     0     0  -77.96646    0  243  -90.18536  -77.96646  13.5%     -  287s
     0     0  -78.08087    0  308  -90.18536  -78.08087  13.4%     -  303s
     0     0  -78.13808    0  273  -90.18536  -78.13808  13.4%     -  313s
     0     0  -78.13808    0  275  -90.18536  -78.13808  13.4%     -  322s
     0     0  -79.22066    0  330  -90.18536  -79.22066  12.2%     -  335s
     0     0  -79.68056    0  381  -90.18536  -79.68056  11.6%     -  351s
     0     0  -79.71855    0  375  -90.18536  -79.71855  11.6%     -  363s
     0     0  -79.79868    0  383  -90.18536  -79.79868  11.5%     -  373s
     0     0  -80.54324    0  378  -90.18536  -80.54324  10.7%     -  391s
     0     0  -80.89777    0  361  -90.18536  -80.89777  10.3%     -  407s
     0     0  -80.91022    0  379  -90.18536  -80.91022  10.3%     -  416s
     0     0  -80.91022    0  384  -90.18536  -80.91022  10.3%     -  425s
     0     0  -80.91022    0  390  -90.18536  -80.91022  10.3%     -  439s
     0     0  -80.92112    0  389  -90.18536  -80.92112  10.3%     -  456s
     0     0  -80.92112    0  384  -90.18536  -80.92112  10.3%     -  467s
     0     0  -81.67761    0  350  -90.18536  -81.67761  9.43%     -  484s
     0     0  -81.79202    0  399  -90.18536  -81.79202  9.31%     -  501s
     0     0  -81.85015    0  397  -90.18536  -81.85015  9.24%     -  511s
     0     0  -81.85015    0  401  -90.18536  -81.85015  9.24%     -  519s
     0     0  -83.15042    0  279  -90.18536  -83.15042  7.80%     -  535s
     0     0  -83.15042    0  278  -90.18536  -83.15042  7.80%     -  548s
     0     0  -83.15042    0  292  -90.18536  -83.15042  7.80%     -  563s
     0     0  -83.15042    0  337  -90.18536  -83.15042  7.80%     -  609s
     0     0  -83.15042    0  340  -90.18536  -83.15042  7.80%     -  625s
     0     0  -83.54148    0  395  -90.18536  -83.54148  7.37%     -  663s
     0     0  -83.56788    0  377  -90.18536  -83.56788  7.34%     -  680s
     0     0  -83.56788    0  378  -90.18536  -83.56788  7.34%     -  689s
     0     0  -84.19364    0  381  -90.18536  -84.19364  6.64%     -  704s
     0     0  -84.45750    0  314  -90.18536  -84.45750  6.35%     -  722s
     0     0  -84.47960    0  395  -90.18536  -84.47960  6.33%     -  731s
     0     0  -84.47960    0  399  -90.18536  -84.47960  6.33%     -  741s
     0     0  -84.48263    0  387  -90.18536  -84.48263  6.32%     -  788s
     0     0  -84.48263    0  195  -90.18536  -84.48263  6.32%     - 1144s
     0     0  -84.48263    0  191  -90.18536  -84.48263  6.32%     - 1144s
     0     0  -84.48263    0  219  -90.18536  -84.48263  6.32%     - 1144s
     0     0  -84.48263    0  228  -90.18536  -84.48263  6.32%     - 1144s
     0     0  -84.48263    0  226  -90.18536  -84.48263  6.32%     - 1145s
     0     0  -84.48263    0  226  -90.18536  -84.48263  6.32%     - 1145s
     0     0  -84.48263    0  227  -90.18536  -84.48263  6.32%     - 1145s
     0     0  -84.48263    0  227  -90.18536  -84.48263  6.32%     - 1145s
     0     0  -85.30985    0  210  -90.18536  -85.30985  5.41%     - 1145s
     0     0  -85.63061    0  233  -90.18536  -85.63061  5.05%     - 1145s
     0     0  -85.71917    0  224  -90.18536  -85.71917  4.95%     - 1145s
     0     0  -85.72285    0  226  -90.18536  -85.72285  4.95%     - 1146s
     0     0  -85.72472    0  221  -90.18536  -85.72472  4.95%     - 1146s
     0     0  -85.72472    0  228  -90.18536  -85.72472  4.95%     - 1146s
     0     0  -85.76379    0  216  -90.18536  -85.76379  4.90%     - 1146s
     0     0  -85.77375    0  231  -90.18536  -85.77375  4.89%     - 1146s
     0     0  -85.77375    0  234  -90.18536  -85.77375  4.89%     - 1147s
     0     0  -85.97453    0  217  -90.18536  -85.97453  4.67%     - 1147s
     0     0  -85.98506    0  218  -90.18536  -85.98506  4.66%     - 1147s
     0     0  -86.03412    0  230  -90.18536  -86.03412  4.60%     - 1147s
     0     0  -86.03505    0  233  -90.18536  -86.03505  4.60%     - 1147s
     0     0  -86.03789    0  230  -90.18536  -86.03789  4.60%     - 1148s
     0     0  -86.03789    0  188  -90.18536  -86.03789  4.60%     - 1149s
     0     0  -86.03789    0  205  -90.18536  -86.03789  4.60%     - 1149s
     0     0  -86.03789    0  193  -90.18536  -86.03789  4.60%     - 1149s
     0     0  -86.03789    0  181  -90.18536  -86.03789  4.60%     - 1149s
     0     0  -86.03789    0  220  -90.18536  -86.03789  4.60%     - 1149s
     0     0  -86.03878    0  225  -90.18536  -86.03878  4.60%     - 1149s
     0     0  -86.03878    0  224  -90.18536  -86.03878  4.60%     - 1149s
     0     0  -86.49127    0  228  -90.18536  -86.49127  4.10%     - 1149s
     0     0  -86.51696    0  227  -90.18536  -86.51696  4.07%     - 1150s
     0     0  -86.52352    0  229  -90.18536  -86.52352  4.06%     - 1150s
     0     0  -86.54443    0  209  -90.18536  -86.54443  4.04%     - 1150s
     0     0  -86.54443    0  210  -90.18536  -86.54443  4.04%     - 1150s
     0     0  -86.55370    0  195  -90.18536  -86.55370  4.03%     - 1150s
     0     0  -86.55518    0  209  -90.18536  -86.55518  4.03%     - 1150s
     0     0  -86.74526    0  221  -90.18536  -86.74526  3.81%     - 1150s
     0     0  -86.77562    0  223  -90.18536  -86.77562  3.78%     - 1150s
     0     0  -86.77562    0  224  -90.18536  -86.77562  3.78%     - 1150s
     0     0  -86.86293    0  213  -90.18536  -86.86293  3.68%     - 1150s
     0     0  -86.91766    0  217  -90.18536  -86.91766  3.62%     - 1150s
     0     0  -86.92284    0  223  -90.18536  -86.92284  3.62%     - 1151s
     0     0  -86.92284    0  224  -90.18536  -86.92284  3.62%     - 1151s
     0     0  -86.95727    0  233  -90.18536  -86.95727  3.58%     - 1151s
     0     0  -86.97603    0  235  -90.18536  -86.97603  3.56%     - 1151s
     0     0  -86.98994    0  232  -90.18536  -86.98994  3.54%     - 1151s
     0     0  -86.99566    0  223  -90.18536  -86.99566  3.54%     - 1151s
     0     0  -86.99566    0  224  -90.18536  -86.99566  3.54%     - 1151s
     0     0  -87.22396    0  151  -90.18536  -87.22396  3.28%     - 1151s
     0     0  -87.22396    0  145  -90.18536  -87.22396  3.28%     - 1151s
     0     0  -87.36042    0  156  -90.18536  -87.36042  3.13%     - 1151s
     0     0  -87.36614    0  130  -90.18536  -87.36614  3.13%     - 1151s
     0     0  -87.37864    0  130  -90.18536  -87.37864  3.11%     - 1152s
     0     0  -87.42277    0  183  -90.18536  -87.42277  3.06%     - 1152s
     0     0  -87.42277    0  195  -90.18536  -87.42277  3.06%     - 1152s
     0     0  -87.47023    0  195  -90.18536  -87.47023  3.01%     - 1152s
     0     0  -87.67021    0  207  -90.18536  -87.67021  2.79%     - 1152s
     0     0  -87.67021    0  210  -90.18536  -87.67021  2.79%     - 1152s
     0     0  -87.67458    0  220  -90.18536  -87.67458  2.78%     - 1152s
     0     0  -87.68052    0  223  -90.18536  -87.68052  2.78%     - 1153s
     0     0  -87.68460    0  224  -90.18536  -87.68460  2.77%     - 1153s
     0     0  -87.77780    0  205  -90.18536  -87.77780  2.67%     - 1153s
     0     0  -87.78234    0  205  -90.18536  -87.78234  2.66%     - 1153s
     0     0  -87.78234    0  205  -90.18536  -87.78234  2.66%     - 1153s
     0     0  -87.79379    0  216  -90.18536  -87.79379  2.65%     - 1153s
     0     0  -87.79379    0  217  -90.18536  -87.79379  2.65%     - 1153s
     0     0  -87.79379    0  198  -90.18536  -87.79379  2.65%     - 1153s
     0     0  -87.79379    0  198  -90.18536  -87.79379  2.65%     - 1153s
     0     0  -87.79379    0  199  -90.18536  -87.79379  2.65%     - 1154s
     0     0  -87.79379    0  199  -90.18536  -87.79379  2.65%     - 1154s
     0     0  -87.79379    0  159  -90.18536  -87.79379  2.65%     - 1155s
     0     0  -87.79379    0  163  -90.18536  -87.79379  2.65%     - 1155s
     0     0  -87.79379    0  149  -90.18536  -87.79379  2.65%     - 1155s
     0     0  -87.79379    0  154  -90.18536  -87.79379  2.65%     - 1155s
     0     0  -87.79379    0  159  -90.18536  -87.79379  2.65%     - 1155s
     0     0  -87.79379    0  160  -90.18536  -87.79379  2.65%     - 1155s
     0     0  -87.79379    0  167  -90.18536  -87.79379  2.65%     - 1155s
     0     0  -87.79379    0  181  -90.18536  -87.79379  2.65%     - 1155s
     0     0  -87.79379    0  184  -90.18536  -87.79379  2.65%     - 1155s
     0     0  -87.79379    0  185  -90.18536  -87.79379  2.65%     - 1156s
     0     0  -87.79379    0  171  -90.18536  -87.79379  2.65%     - 1156s
     0     2  -87.87424    0  171  -90.18536  -87.87424  2.56%     - 1157s

Cutting planes:
  Gomory: 6
  MIR: 4
  Zero half: 44

Explored 22 nodes (25575 simplex iterations) in 1157.83 seconds
Thread count was 1 (of 80 available processors)

Solution count 6: -90.1854 -90.1854 -90.1854 ... -9198.09

Optimal solution found (tolerance 1.00e-04)
Best objective -9.018536211349e+01, best bound -9.018536211349e+01, gap 0.0000%
